2
120 2
75
20 1 3
21 1 3
22 1 2
23 1 1
24 1 4
25 1 3
26 1 1
28 1 1
29 1 2
30 1 1
31 1 1
33 1 4
34 1 6
35 1 3
36 1 4
38 1 2
39 1 4
40 1 2
41 1 2
42 1 3
43 1 1
44 1 5
45 1 1
46 1 1
47 1 3
48 1 1
49 1 4
51 1 4
52 1 5
53 1 3
54 1 2
55 1 4
56 1 2
57 1 4
58 1 2
60 1 4
61 1 4
62 1 1
63 1 1
64 1 2
65 1 2
66 1 5
67 1 4
68 1 1
69 1 1
70 1 5
71 1 2
72 1 4
74 1 6
75 1 2
76 1 4
77 1 2
78 1 3
79 1 1
80 1 2
81 1 3
82 1 3
83 1 2
84 1 1
85 1 3
86 1 2
87 1 8
88 1 7
89 1 2
90 1 1
91 1 1
92 1 1
93 1 2
94 1 1
95 1 1
96 1 4
97 1 2
98 1 2
99 1 2
100 1 2
